1397
98 186 307 401 530 858 947 1024 1123 1209 
0 119 238 452 527 740 806 898 1190 1334 
0 83 153 328 467 624 709 787 1013 1068 
50 144 267 527 626 680 755 898 1024 1087 
50 267 355 437 643 791 858 953 1123 1190 
0 186 267 401 532 711 791 860 922 1001 
0 99 355 452 548 643 947 1021 1120 1263 
0 165 250 332 459 530 624 742 972 1184 
0 94 169 250 393 621 711 821 879 1087 
0 94 185 267 335 437 533 626 879 1068 
